\ LP format - for model browsing. Use MPS format to capture full model detail.
Maximize
  42.71428571428572 z1 + 19.71428571428572 z2 + 32.85714285714288 z3
   + 7.428571428571443 z4 + 23 z5 + 19.71428571428572 z6
   + 16.42857142857144 z7 + 11 z8 + 16.42857142857143 z9
   + 26.2857142857143 z10 + 13 z11 + 46 z12 + 16.42857142857143 z13
   + 32 z14 + 36.14285714285715 z15 + 39 z16 + 29.57142857142858 z17
   + 41 z18 + 31.85714285714289 z19 + 35 z20
Subject To
 constraint1: 47 z1 + 24 z2 + 41 z3 + 14 z4 + 26 z5 + 23 z6 + 19 z7 + 11 z8
   + 18 z9 + 33 z10 + 13 z11 + 46 z12 + 20 z13 + 32 z14 + 41 z15 + 39 z16
   + 36 z17 + 41 z18 + 48 z19 + 40 z20 <= 200
 constraints2_4_&_14: z4 - z14 = 0
 constraints2_8_&_20: z8 - z20 = 0
 constraints2_11_&_16: z11 - z16 = 0
 constraints2_16_&_18: z16 - z18 = 0
 constraints2_18_&_19: z18 - z19 = 0
 constraints3_1_|_9: z1 + z9 <= 1
 constraints3_1_|_12: z1 + z12 <= 1
 constraints3_2_|_10: z2 + z10 <= 1
 constraints3_4_|_9: z4 + z9 <= 1
 constraints3_4_|_11: z4 + z11 <= 1
 constraints3_7_|_11: z7 + z11 <= 1
 constraints3_7_|_16: z7 + z16 <= 1
 constraints3_8_|_11: z8 + z11 <= 1
 constraints3_8_|_12: z8 + z12 <= 1
 constraints3_8_|_18: z8 + z18 <= 1
 constraints3_9_|_14: z9 + z14 <= 1
 constraints3_11_|_12: z11 + z12 <= 1
 constraints3_11_|_15: z11 + z15 <= 1
 constraints3_11_|_20: z11 + z20 <= 1
 constraints3_12_|_15: z12 + z15 <= 1
 constraints3_18_|_20: z18 + z20 <= 1
Bounds
Binaries
 z1 z2 z3 z4 z5 z6 z7 z8 z9 z10 z11 z12 z13 z14 z15 z16 z17 z18 z19 z20
End
